PreSolver/instances/dataset_final/sat_tiling_10_48_8351.cnf
c description: tiling of 
c generator: CNFgen (0.9.0)
c copyright: (C) 2012-2020 Massimo Lauria <massimo.lauria@uniroma1.it>
c url: https://massimolauria.net/cnfgen
c
p cnf 10 48
-1 -2 0
-1 -4 0
-1 -10 0
-2 -4 0
-2 -10 0
-4 -10 0
1 2 4 10 0
-1 -3 0
-1 -4 0
-1 -5 0
-3 -4 0
-3 -5 0
-4 -5 0
1 3 4 5 0
-1 -5 0
-1 -10 0
-5 -10 0
1 5 10 0
-2 -4 0
-2 -8 0
-4 -8 0
2 4 8 0
-2 -8 0
-2 -10 0
-8 -10 0
2 8 10 0
-3 -4 0
-3 -5 0
-3 -6 0
-4 -5 0
-4 -6 0
-5 -6 0
3 4 5 6 0
-3 -4 0
-3 -5 0
-3 -8 0
-3 -10 0
-4 -5 0
-4 -8 0
-4 -10 0
-5 -8 0
-5 -10 0
-8 -10 0
3 4 5 8 10 0
-3 -6 0
3 6 0
7 0
9 0